benchmarks/VRPTW/TSPTW/solution/n80w100.001.txt.solution
1 62 68 8 32 16 11 49 38 55 23 78 6 59 28 3 31 5 40 61 75 74 25 47 30 33 24 77 7 48 79 64 22 19 63 76 52 13 12 4 51 69 43 37 2 50 15 73 35 17 26 72 46 27 56 10 66 44 71 29 60 54 36 45 34 21 58 42 41 65 9 39 57 14 53 80 70 18 67 81 20 
565
